\ENCODING=ISO-8859-1
\Problem name: 

Minimize
 obj: 29865 x_0_0 + 609.003270950276 gp_0 + 69.0315569601694 gp_1
      + 316.278071847348 gp_2 + 435.762373334773 gp_3 + 238.293282795531 gp_4
      + 75.3624155361895 gp_5 + 264.313153437768 gp_7 + 207.756278218519 gp_9
      + 299.078457043028 gp_10 + 199.197042062734 gp_12 + 761.6422726059 gp_14
      + 110.578070579715 gp_15 + 479.430792696375 gp_16
      + 674.923604270915 gp_18 + 315.082304768087 gp_19
      + 115.328233165564 gp_20 + 471.799132159304 gp_23
      + 186.958969638033 gp_24 + 213.137217133177 gp_25
      + 296.888607103132 gp_26 + 171.469144778331 gp_27
      + 261.609771791811 gp_29 + 449.881901938049 gp_31
      + 278.585399572181 gp_33 + 519.835640415485 gp_34
      + 285.584158100594 gp_35 + 313.81223338509 gp_36 + 303.249254632201 gp_37
      + 509.342054602894 gp_38 + 44.2725484548252 gp_40 + 531.31583160418 gp_42
      + 1349.89625813956 gp_43 + 342.429831917601 gp_44 + 385.31699531259 gp_46
      + 272.915698636952 gp_48 + 476.005453464671 gp_49
      + 188.488855406603 gp_51 + 279.581271150073 gp_52
      + 869.950183928918 gp_53 + 194.154663527149 gp_54
      + 322.933262645961 gp_56 + 8.91628487946156 gp_57
      + 265.225731638788 gp_58 + 242.14910881028 gp_59 + 677.663663841571 gp_61
      + 1501.90410329007 gp_62 + 511.913993884112 gp_63
      + 69.6262885759545 gp_65 + 2.97284356156919 gp_67
      + 282.388232343659 gp_68 + 371.937479089097 gp_69
      + 230.227881462221 gp_71 + 175.317875730741 gp_72
      + 271.214494947491 gp_73 + 402.9019043461 gp_74 + 53.6511445124277 gp_75
      + 137.538169241174 gp_76 + 441.801788876538 gp_77 + 304.18086318206 gp_78
      + 12.3457246477323 gp_79 + 23.3333601577606 gp_81
      + 570.596935610388 gp_82 + 555.855285085555 gp_83
      + 271.491027989506 gp_84 + 545.689649738591 gp_87 + 324.18568143882 gp_88
      + 55.0122411163709 gp_89 + 541.722199870697 gp_90
      + 442.336196568088 gp_91 + 298.760312351944 gp_92
      + 374.328869317892 gp_93 + 206.074609149241 gp_94
      + 624.142281114922 gp_95 + 497.517786639099 gp_96
      + 804.896124350316 gp_97 - 609.003270950276 gm_0 - 69.0315569601694 gm_1
      - 316.278071847348 gm_2 - 435.762373334773 gm_3 - 238.293282795531 gm_4
      - 75.3624155361895 gm_5 - 264.313153437768 gm_7 - 207.756278218519 gm_9
      - 299.078457043028 gm_10 - 199.197042062734 gm_12 - 761.6422726059 gm_14
      - 110.578070579715 gm_15 - 479.430792696375 gm_16
      - 674.923604270915 gm_18 - 315.082304768087 gm_19
      - 115.328233165564 gm_20 - 471.799132159304 gm_23
      - 186.958969638033 gm_24 - 213.137217133177 gm_25
      - 296.888607103132 gm_26 - 171.469144778331 gm_27
      - 261.609771791811 gm_29 - 449.881901938049 gm_31
      - 278.585399572181 gm_33 - 519.835640415485 gm_34
      - 285.584158100594 gm_35 - 313.81223338509 gm_36 - 303.249254632201 gm_37
      - 509.342054602894 gm_38 - 44.2725484548252 gm_40 - 531.31583160418 gm_42
      - 1349.89625813956 gm_43 - 342.429831917601 gm_44 - 385.31699531259 gm_46
      - 272.915698636952 gm_48 - 476.005453464671 gm_49
      - 188.488855406603 gm_51 - 279.581271150073 gm_52
      - 869.950183928918 gm_53 - 194.154663527149 gm_54
      - 322.933262645961 gm_56 - 8.91628487946156 gm_57
      - 265.225731638788 gm_58 - 242.14910881028 gm_59 - 677.663663841571 gm_61
      - 1501.90410329007 gm_62 - 511.913993884112 gm_63
      - 69.6262885759545 gm_65 - 2.97284356156919 gm_67
      - 282.388232343659 gm_68 - 371.937479089097 gm_69
      - 230.227881462221 gm_71 - 175.317875730741 gm_72
      - 271.214494947491 gm_73 - 402.9019043461 gm_74 - 53.6511445124277 gm_75
      - 137.538169241174 gm_76 - 441.801788876538 gm_77 - 304.18086318206 gm_78
      - 12.3457246477323 gm_79 - 23.3333601577606 gm_81
      - 570.596935610388 gm_82 - 555.855285085555 gm_83
      - 271.491027989506 gm_84 - 545.689649738591 gm_87 - 324.18568143882 gm_88
      - 55.0122411163709 gm_89 - 541.722199870697 gm_90
      - 442.336196568088 gm_91 - 298.760312351944 gm_92
      - 374.328869317892 gm_93 - 206.074609149241 gm_94
      - 624.142281114922 gm_95 - 497.517786639099 gm_96
      - 804.896124350316 gm_97 - 3794.35493862277 yp_0 - 4370.96297827831 yp_1
      - 3670.48294366464 yp_2 - 3553.85908214475 yp_3 - 4098.05401597681 yp_4
      + 3794.35493862277 ym_0 + 4370.96297827831 ym_1 + 3670.48294366464 ym_2
      + 3553.85908214475 ym_3 + 4098.05401597681 ym_4 + 439 x211 + 562 x212
      + 428 x213 + 413 x214 + 563 x215 + 349 x216 + 490 x217 + 644 x218
      + 543 x219 + 485 x220 + 469 x221 + 511 x222 + 559 x223 + 666 x224
      + 608 x225 + 641 x226 + 479 x227 + 587 x228 + 586 x229 + 642 x230
      + 968 x231 + 898 x232 + 664 x233 + 635 x234 + 1123 x235 + 1108 x236
      + 1028 x237 + 1097 x238 + 1514 x239 + 1122 x240 + 1347 x241 + 1468 x242
      + 1406 x243 + 1268 x244 + 1158 x245 + 1401 x246 + 1472 x247 + 1186 x248
      + 1287 x249 + 906 x250 + 1626 x251 + 1263 x252 + 1217 x253 + 958 x254
      + 1142 x255 + 1073 x256 + 1361 x257 + 1203 x258 + 1312 x259 + 1233 x260
      + 1289 x261 + 1237 x262 + 1532 x263 + 1325 x264 + 1403 x265 + 1524 x266
      + 1749 x267 + 1527 x268 + 1607 x269 + 1561 x270 + 1605 x271 + 1459 x272
      + 1409 x273 + 1181 x274 + 1574 x275 + 1792 x276 + 1680 x277 + 1847 x278
      + 1598 x279 + 1299 x280 + 2002 x281 + 1597 x282 + 1743 x283 + 1834 x284
      + 1835 x285 + 2012 x286 + 2128 x287 + 1843 x288 + 1413 x289 + 1028 x290
      + 1733 x291 + 1662 x292 + 1670 x293 + 1522 x294 + 1364 x295 + 2043 x296
      + 1763 x297 + 2224 x298 + 1924 x299 + 1586 x300 + 1912 x301 + 2103 x302
      + 1861 x303 + 2050 x304 + 1534 x305 + 2070 x306 + 2316 x307 + 1544 x308
      + 1864 x309 + 1342 x310
Subject To
 assignment_0:  x_0_0 + gp_0 - gm_0 + x211 + x212 + x213 + x214 + x215 + x296
                + x297 + x298 + x299 + x300 + x301 + x302 + x303 + x304 + x305
                + x306 + x307 + x308 + x309 + x310 >= 1
 assignment_1:  x_0_0 + gp_1 - gm_1 + x216 + x217 + x218 + x219 + x220 + x281
                + x282 + x283 + x284 + x285 + x286 + x287 + x288 + x289 + x290
                + x296 + x297 + x298 + x299 >= 1
 assignment_2:  x_0_0 + gp_2 - gm_2 + x218 + x236 + x237 + x238 + x239 + x240
                + x251 + x252 + x253 + x254 + x257 + x259 + x264 + x266 + x267
                + x268 + x269 + x306 + x307 + x308 + x309 >= 1
 assignment_3:  x_0_0 + gp_3 - gm_3 + x211 + x215 + x241 + x242 + x243 + x244
                + x245 + x286 + x287 + x288 + x289 + x290 + x291 + x292 + x293
                + x294 + x295 + x302 + x303 + x307 >= 1
 assignment_4:  x_0_0 + gp_4 - gm_4 + x221 + x222 + x223 + x224 + x225 + x262
                + x264 + x265 + x266 + x267 + x269 + x271 + x274 + x279 + x282
                + x284 + x289 + x292 + x294 + x295 + x299 >= 1
 assignment_5:  x_0_0 + gp_5 - gm_5 + x217 + x220 + x231 + x232 + x233 + x234
                + x235 + x253 + x258 + x263 + x268 + x269 + x270 + x273 + x275
                + x278 + x280 + x283 + x285 + x288 >= 1
 assignment_6:  x_0_0 + gp_6 - gm_6 + x212 + x217 + x256 + x257 + x258 + x259
                + x260 + x261 + x262 + x263 + x264 + x265 + x301 + x302 + x303
                + x304 + x305 >= 1
 assignment_7:  x_0_0 + gp_7 - gm_7 + x213 + x218 + x251 + x256 + x257 + x259
                + x260 + x296 >= 1
 assignment_8:  x_0_0 + gp_8 - gm_8 + x213 + x218 + x223 + x225 + x281 + x282
                + x283 + x284 + x285 + x291 + x294 + x295 + x296 + x299 + x300
                + x301 + x304 + x305 >= 1
 assignment_9:  x_0_0 + gp_9 - gm_9 + x218 + x223 + x226 + x227 + x230 + x258
                + x268 + x269 + x273 + x274 + x278 + x279 + x283 + x284 + x288
                + x289 + x293 + x294 + x295 >= 1
 assignment_10: x_0_0 + gp_10 - gm_10 + x218 + x219 + x246 + x247 + x248 + x249
                + x250 + x269 + x271 + x272 + x273 + x274 + x275 + x292 + x294
                + x302 + x303 + x304 >= 1
 assignment_11: x_0_0 + gp_11 - gm_11 + x221 + x226 + x228 + x231 + x232 + x233
                + x234 + x251 + x252 + x255 + x265 + x266 + x270 + x271 + x275
                + x276 + x280 + x281 + x285 + x286 + x287 + x290 >= 1
 assignment_12: x_0_0 + gp_12 - gm_12 + x212 + x217 + x222 + x225 + x276 + x277
                + x278 + x279 + x280 + x286 + x296 + x297 + x298 + x299 + x300
                + x301 >= 1
 assignment_13: x_0_0 + gp_13 - gm_13 + x211 + x213 + x266 + x267 + x268 + x269
                + x270 + x276 + x277 + x278 + x279 + x280 + x301 + x302 + x303
                + x304 + x305 >= 1
 assignment_14: x_0_0 + gp_14 - gm_14 + x212 + x217 + x222 + x227 + x228 + x231
                + x232 + x233 + x235 + x284 + x285 + x289 + x291 + x292 + x293
                + x294 + x295 + x304 + x306 + x307 + x308 + x309 + x310 >= 1
 assignment_15: x_0_0 + gp_15 - gm_15 + x226 + x227 + x228 + x229 + x230 + x241
                + x242 + x243 + x244 + x245 + x266 + x267 + x268 + x269 + x270
                + x281 + x282 + x283 + x284 + x285 + x298 + x299 + x300 + x303
                + x304 + x305 >= 1
 assignment_16: x_0_0 + gp_16 - gm_16 + x217 + x229 + x231 + x232 + x233 + x234
                + x235 + x251 + x252 + x253 + x254 + x255 + x266 + x267 + x268
                + x270 + x276 + x277 + x302 + x306 + x307 >= 1
 assignment_17: x_0_0 + gp_17 - gm_17 + x231 + x232 + x233 + x234 + x235 + x236
                + x237 + x238 + x239 + x240 + x261 + x263 + x264 + x265 + x266
                + x267 + x268 + x269 + x270 + x291 + x292 + x293 + x294 + x295
                >= 1
 assignment_18: x_0_0 + gp_18 - gm_18 + x212 + x215 + x266 + x267 + x268 + x269
                + x270 + x292 + x297 + x301 + x302 + x303 + x304 + x305 + x307
                + x308 + x309 + x310 >= 1
 assignment_19: x_0_0 + gp_19 - gm_19 + x216 + x236 + x237 + x238 + x239 + x240
                + x253 + x254 + x255 + x261 + x262 + x263 + x264 + x265 + x268
                + x269 + x270 + x288 + x289 + x292 + x293 + x294 + x295 + x303
                + x304 + x308 + x309 >= 1
 assignment_20: x_0_0 + gp_20 - gm_20 + x213 + x218 + x223 + x227 + x228 + x235
                + x286 + x287 + x288 + x289 + x290 + x291 + x293 + x294 + x296
                + x298 + x299 + x300 + x301 + x303 + x304 >= 1
 assignment_21: x_0_0 + gp_21 - gm_21 + x232 + x236 + x237 + x238 + x239 + x240
                + x241 + x242 + x243 + x244 + x245 + x276 + x278 + x279 + x280
                + x281 + x283 + x284 + x285 + x301 + x302 + x303 + x304 + x305
                >= 1
 assignment_22: x_0_0 + gp_22 - gm_22 + x211 + x216 + x220 + x271 + x272 + x273
                + x274 + x275 + x281 + x283 + x284 + x285 + x291 + x292 + x293
                + x294 + x295 >= 1
 assignment_23: x_0_0 + gp_23 - gm_23 + x214 + x236 + x237 + x238 + x239 + x240
                + x263 + x268 + x270 + x273 + x275 + x293 + x295 + x296 + x298
                + x300 + x301 + x303 + x305 + x308 + x310 >= 1
 assignment_24: x_0_0 + gp_24 - gm_24 + x221 + x222 + x236 + x237 + x238 + x239
                + x240 + x251 + x252 + x253 + x254 + x255 + x276 + x281 + x284
                + x285 + x291 + x296 >= 1
 assignment_25: x_0_0 + gp_25 - gm_25 + x227 + x229 + x236 + x237 + x238 + x239
                + x240 + x246 + x247 + x248 + x249 + x256 + x261 + x263 + x291
                + x292 + x293 + x295 + x296 + x298 >= 1
 assignment_26: x_0_0 + gp_26 - gm_26 + x211 + x215 + x251 + x252 + x253 + x254
                + x255 + x271 + x272 + x273 + x274 + x275 + x296 + x298 + x301
                + x303 + x306 + x307 >= 1
 assignment_27: x_0_0 + gp_27 - gm_27 + x216 + x221 + x231 + x256 + x257 + x258
                + x259 + x260 + x262 + x263 + x264 + x265 + x278 + x280 + x283
                + x285 + x288 + x290 + x305 >= 1
 assignment_28: x_0_0 + gp_28 - gm_28 + x224 + x229 + x231 + x234 + x239 + x241
                + x242 + x243 + x244 + x245 + x268 + x271 + x272 + x273 + x275
                + x278 + x283 + x288 + x296 + x297 + x298 + x299 + x300 >= 1
 assignment_29: x_0_0 + gp_29 - gm_29 + x220 + x230 + x235 + x238 + x241 + x242
                + x243 + x244 + x245 + x251 + x252 + x254 + x276 + x286 + x287
                + x289 + x301 + x304 + x306 + x309 >= 1
 assignment_30: x_0_0 + gp_30 - gm_30 + x212 + x216 + x217 + x266 + x267 + x268
                + x269 + x270 + x286 + x287 + x288 + x289 + x290 + x296 + x297
                + x298 + x299 + x300 >= 1
 assignment_31: x_0_0 + gp_31 - gm_31 + x220 + x222 + x225 + x242 + x243 + x251
                + x260 + x261 + x265 >= 1
 assignment_32: x_0_0 + gp_32 - gm_32 + x215 + x220 + x225 + x226 + x230 + x231
                + x233 + x234 + x235 + x291 + x292 + x293 + x294 + x295 + x296
                + x297 + x300 + x301 + x302 + x303 + x304 + x305 >= 1
 assignment_33: x_0_0 + gp_33 - gm_33 + x221 + x223 + x225 + x246 + x247 + x248
                + x249 + x250 + x266 + x267 + x268 + x271 + x272 + x287 + x292
                + x297 + x302 + x307 >= 1
 assignment_34: x_0_0 + gp_34 - gm_34 + x221 + x226 + x228 + x230 + x246 + x247
                + x248 + x249 + x250 + x256 + x257 + x258 + x259 + x260 + x281
                + x282 + x284 + x285 + x306 + x307 + x309 + x310 >= 1
 assignment_35: x_0_0 + gp_35 - gm_35 + x231 + x232 + x233 + x235 + x237 + x239
                + x240 + x246 + x247 + x249 + x250 + x281 + x282 + x283 + x284
                + x285 + x301 + x302 + x303 + x304 + x305 + x307 + x309 + x310
                >= 1
 assignment_36: x_0_0 + gp_36 - gm_36 + x214 + x219 + x257 + x258 + x260 + x266
                + x267 + x268 + x269 + x270 + x292 + x293 + x298 + x303 + x308
                >= 1
 assignment_37: x_0_0 + gp_37 - gm_37 + x214 + x219 + x224 + x226 + x228 + x229
                + x287 + x290 + x291 + x292 + x293 + x294 + x295 + x296 + x297
                + x298 + x299 + x300 + x302 + x307 >= 1
 assignment_38: x_0_0 + gp_38 - gm_38 + x230 + x231 + x232 + x233 + x235 + x236
                + x239 + x242 + x244 + x247 + x262 + x264 + x267 + x269 + x297
                + x299 + x302 + x304 + x307 + x309 >= 1
 assignment_39: x_0_0 + gp_39 - gm_39 + x214 + x215 + x261 + x262 + x263 + x264
                + x265 + x276 + x277 + x278 + x279 + x280 >= 1
 assignment_40: x_0_0 + gp_40 - gm_40 + x227 + x232 + x234 + x235 + x241 + x242
                + x243 + x244 + x245 + x246 + x250 + x251 + x255 + x266 + x270
                + x271 + x275 + x276 + x280 + x281 + x285 + x301 + x305 >= 1
 assignment_41: x_0_0 + gp_41 - gm_41 + x219 + x236 + x237 + x238 + x239 + x240
                + x256 + x257 + x258 + x259 + x260 + x271 + x272 + x273 + x274
                + x275 + x302 + x304 >= 1
 assignment_42: x_0_0 + gp_42 - gm_42 + x212 + x217 + x218 + x271 + x272 + x273
                + x274 + x275 + x280 + x285 + x295 + x299 + x300 + x302 + x303
                + x305 + x309 + x310 >= 1
 assignment_43: x_0_0 + gp_43 - gm_43 + x218 + x223 + x225 + x256 + x257 + x258
                + x259 + x260 + x276 + x277 + x278 + x279 + x280 + x306 + x307
                + x308 + x309 + x310 >= 1
 assignment_44: x_0_0 + gp_44 - gm_44 + x214 + x215 + x251 + x252 + x253 + x254
                + x255 + x281 + x282 + x283 + x284 + x285 >= 1
 assignment_45: x_0_0 + gp_45 - gm_45 + x221 + x226 + x227 + x241 + x242 + x243
                + x244 + x245 + x258 + x259 + x263 + x264 + x268 + x269 + x273
                + x278 + x279 + x298 + x299 + x303 + x304 >= 1
 assignment_46: x_0_0 + gp_46 - gm_46 + x212 + x241 + x242 + x243 + x244 + x245
                + x266 + x267 + x268 + x269 + x270 + x281 + x282 + x283 + x284
                + x285 + x309 + x310 >= 1
 assignment_47: x_0_0 + gp_47 - gm_47 + x225 + x228 + x230 + x236 + x237 + x238
                + x239 + x240 + x251 + x252 + x253 + x254 + x255 + x267 + x286
                + x287 + x289 >= 1
 assignment_48: x_0_0 + gp_48 - gm_48 + x213 + x218 + x223 + x228 + x233 + x235
                + x276 + x277 + x279 + x280 + x281 + x282 + x284 + x296 + x297
                + x298 + x299 + x300 + x306 + x307 + x309 >= 1
 assignment_49: x_0_0 + gp_49 - gm_49 + x211 + x213 + x261 + x262 + x263 + x264
                + x265 + x281 + x282 + x283 + x284 + x285 + x298 + x299 + x300
                + x304 + x305 + x309 + x310 >= 1
 assignment_50: x_0_0 + gp_50 - gm_50 + x219 + x221 + x224 + x252 + x253 + x255
                + x257 + x258 + x259 + x260 + x273 + x275 + x278 + x283 + x285
                + x288 + x293 + x295 + x298 + x300 >= 1
 assignment_51: x_0_0 + gp_51 - gm_51 + x211 + x216 + x251 + x252 + x253 + x254
                + x255 + x262 + x265 + x267 + x270 + x272 + x275 + x292 + x295
                >= 1
 assignment_52: x_0_0 + gp_52 - gm_52 + x214 + x215 + x256 + x257 + x258 + x259
                + x260 + x280 + x285 + x286 + x290 >= 1
 assignment_53: x_0_0 + gp_53 - gm_53 + x212 + x213 + x276 + x277 + x278 + x279
                + x280 + x286 + x287 + x288 + x289 + x306 + x307 + x308 + x309
                + x310 >= 1
 assignment_54: x_0_0 + gp_54 - gm_54 + x220 + x225 + x229 + x230 + x251 + x252
                + x256 + x257 + x261 + x262 + x266 + x267 + x271 + x272 + x301
                + x302 >= 1
 assignment_55: x_0_0 + gp_55 - gm_55 + x214 + x219 + x224 + x229 + x230 + x276
                + x277 + x278 + x279 + x281 + x282 + x283 + x284 + x287 + x288
                + x291 + x301 + x302 + x303 + x304 + x305 >= 1
 assignment_56: x_0_0 + gp_56 - gm_56 + x212 + x236 + x237 + x238 + x239 + x240
                + x277 + x278 + x279 + x280 + x282 + x283 + x284 + x285 + x305
                + x309 + x310 >= 1
 assignment_57: x_0_0 + gp_57 - gm_57 + x222 + x223 + x224 + x236 + x237 + x238
                + x239 + x240 + x256 + x259 + x260 + x266 + x268 + x269 + x270
                + x271 + x274 + x275 + x276 + x281 + x285 >= 1
 assignment_58: x_0_0 + gp_58 - gm_58 + x213 + x236 + x237 + x238 + x239 + x240
                + x267 + x269 + x270 + x272 + x274 + x277 + x279 + x282 + x284
                + x287 + x307 >= 1
 assignment_59: x_0_0 + gp_59 - gm_59 + x212 + x251 + x252 + x253 + x254 + x255
                + x257 + x258 + x259 + x260 + x293 + x298 + x303 + x308 >= 1
 assignment_60: x_0_0 + gp_60 - gm_60 + x217 + x222 + x223 + x241 + x242 + x243
                + x244 + x245 + x257 + x263 + x267 + x268 + x272 + x273 + x277
                + x278 + x282 + x283 + x284 + x285 >= 1
 assignment_61: x_0_0 + gp_61 - gm_61 + x222 + x224 + x226 + x229 + x231 + x232
                + x234 + x235 + x263 + x272 + x273 + x277 + x278 + x283 + x287
                + x288 + x307 + x308 + x310 >= 1
 assignment_62: x_0_0 + gp_62 - gm_62 + x228 + x234 + x236 + x237 + x238 + x239
                + x240 + x241 + x242 + x243 + x244 + x245 + x261 + x262 + x263
                + x264 + x265 + x271 + x272 + x273 + x274 + x275 + x306 + x307
                + x308 + x309 + x310 >= 1
 assignment_63: x_0_0 + gp_63 - gm_63 + x213 + x241 + x242 + x243 + x244 + x245
                + x256 + x257 + x258 + x259 + x260 + x291 + x292 + x293 + x294
                + x295 + x306 + x307 + x308 + x309 + x310 >= 1
 assignment_64: x_0_0 + gp_64 - gm_64 + x211 + x216 + x256 + x257 + x258 + x259
                + x260 + x271 + x273 + x274 + x275 + x279 + x284 + x289 + x296
                + x298 + x299 + x300 >= 1
 assignment_65: x_0_0 + gp_65 - gm_65 + x221 + x226 + x230 + x231 + x232 + x233
                + x235 + x271 + x272 + x273 + x274 + x275 + x276 + x277 + x278
                + x279 + x280 + x299 + x304 >= 1
 assignment_66: x_0_0 + gp_66 - gm_66 + x211 + x236 + x237 + x238 + x239 + x240
                + x256 + x257 + x258 + x259 + x260 + x286 + x287 + x288 + x289
                + x290 + x302 + x303 + x304 + x305 >= 1
 assignment_67: x_0_0 + gp_67 - gm_67 + x216 + x221 + x222 + x249 + x261 + x262
                + x263 + x264 + x265 + x267 + x268 + x269 + x270 + x294 + x297
                + x298 + x299 + x300 >= 1
 assignment_68: x_0_0 + gp_68 - gm_68 + x218 + x223 + x224 + x251 + x252 + x253
                + x254 + x255 + x261 + x262 + x263 + x264 + x265 + x286 + x291
                + x296 + x301 + x306 >= 1
 assignment_69: x_0_0 + gp_69 - gm_69 + x226 + x227 + x231 + x232 + x235 + x239
                + x253 + x254 + x255 + x258 + x259 + x260 + x269 + x296 + x297
                + x298 + x299 + x300 + x308 + x309 >= 1
 assignment_70: x_0_0 + gp_70 - gm_70 + x214 + x241 + x242 + x243 + x244 + x245
                + x251 + x252 + x253 + x255 + x277 + x278 + x279 + x293 + x297
                + x298 + x302 + x303 >= 1
 assignment_71: x_0_0 + gp_71 - gm_71 + x224 + x228 + x229 + x231 + x232 + x233
                + x234 + x235 + x256 + x257 + x258 + x259 + x260 + x261 + x266
                + x271 + x272 + x274 + x275 + x276 + x281 + x296 + x301 + x306
                >= 1
 assignment_72: x_0_0 + gp_72 - gm_72 + x219 + x220 + x246 + x247 + x248 + x249
                + x251 + x256 + x260 + x296 + x306 >= 1
 assignment_73: x_0_0 + gp_73 - gm_73 + x217 + x219 + x241 + x242 + x243 + x244
                + x245 + x251 + x252 + x253 + x255 + x266 + x271 + x276 + x277
                + x278 + x280 + x291 + x295 + x296 + x297 + x298 + x300 + x306
                >= 1
 assignment_74: x_0_0 + gp_74 - gm_74 + x219 + x222 + x224 + x241 + x243 + x251
                + x255 + x256 + x261 + x266 + x270 + x271 + x275 + x276 + x281
                + x286 + x291 + x296 + x301 + x306 >= 1
 assignment_75: x_0_0 + gp_75 - gm_75 + x218 + x241 + x242 + x243 + x244 + x245
                + x247 + x248 + x249 + x252 + x253 + x254 + x257 + x259 + x272
                + x273 + x274 + x277 + x279 + x302 + x303 + x304 >= 1
 assignment_76: x_0_0 + gp_76 - gm_76 + x217 + x222 + x225 + x227 + x230 + x246
                + x247 + x248 + x249 + x250 + x251 + x254 + x271 + x274 + x276
                + x281 + x286 + x291 >= 1
 assignment_77: x_0_0 + gp_77 - gm_77 + x223 + x226 + x227 + x228 + x229 + x251
                + x252 + x253 + x254 + x255 + x260 + x265 + x270 + x275 + x280
                + x285 + x290 + x295 + x300 + x305 + x310 >= 1
 assignment_78: x_0_0 + gp_78 - gm_78 + x225 + x229 + x230 + x231 + x234 + x235
                + x246 + x247 + x248 + x267 + x276 + x281 + x286 + x297 + x301
                + x302 + x306 + x307 >= 1
 assignment_79: x_0_0 + gp_79 - gm_79 + x212 + x246 + x247 + x248 + x249 + x250
                + x261 + x262 + x263 + x264 + x265 + x291 + x292 + x293 >= 1
 assignment_80: x_0_0 + gp_80 - gm_80 + x224 + x232 + x233 + x234 + x239 + x241
                + x242 + x243 + x244 + x245 + x246 + x250 + x261 + x262 + x263
                + x264 + x265 + x286 + x287 + x288 + x290 + x296 + x297 + x298
                + x299 + x300 >= 1
 assignment_81: x_0_0 + gp_81 - gm_81 + x216 + x241 + x242 + x243 + x244 + x245
                + x246 + x247 + x248 + x249 + x272 + x277 + x281 + x282 + x283
                + x284 + x286 + x287 + x288 + x301 + x302 + x303 + x304 >= 1
 assignment_82: x_0_0 + gp_82 - gm_82 + x211 + x214 + x221 + x224 + x281 + x282
                + x283 + x286 + x287 + x291 + x292 + x293 + x294 + x295 + x306
                + x307 + x308 >= 1
 assignment_83: x_0_0 + gp_83 - gm_83 + x215 + x220 + x225 + x230 + x235 + x240
                + x281 + x286 + x287 + x288 + x289 + x290 + x291 + x296 + x297
                + x299 + x306 + x307 + x308 + x309 >= 1
 assignment_84: x_0_0 + gp_84 - gm_84 + x213 + x214 + x271 + x272 + x273 + x274
                + x275 + x286 + x287 + x288 + x289 + x290 + x301 + x302 + x305
                >= 1
 assignment_85: x_0_0 + gp_85 - gm_85 + x215 + x220 + x236 + x238 + x239 + x240
                + x276 + x277 + x278 + x279 + x280 + x291 + x292 + x293 + x294
                + x295 >= 1
 assignment_86: x_0_0 + gp_86 - gm_86 + x211 + x216 + x246 + x247 + x248 + x249
                + x250 + x276 + x277 + x278 + x279 + x280 + x292 + x293 + x294
                + x297 + x298 + x299 + x300 >= 1
 assignment_87: x_0_0 + gp_87 - gm_87 + x215 + x220 + x246 + x247 + x248 + x249
                + x250 + x256 + x257 + x258 + x259 + x281 + x282 + x283 + x284
                + x285 + x296 + x297 + x298 + x299 + x300 + x306 + x307 + x308
                + x309 + x310 >= 1
 assignment_88: x_0_0 + gp_88 - gm_88 + x212 + x215 + x271 + x272 + x273 + x274
                + x275 + x281 + x283 + x286 + x288 + x291 + x293 + x306 + x308
                >= 1
 assignment_89: x_0_0 + gp_89 - gm_89 + x215 + x218 + x220 + x266 + x267 + x268
                + x269 + x270 + x286 + x287 + x288 + x289 + x290 + x301 + x302
                + x304 + x305 >= 1
 assignment_90: x_0_0 + gp_90 - gm_90 + x211 + x215 + x246 + x247 + x248 + x249
                + x250 + x282 + x287 + x288 + x292 + x293 + x297 + x298 + x301
                + x302 + x303 + x304 + x305 + x307 + x308 + x309 + x310 >= 1
 assignment_91: x_0_0 + gp_91 - gm_91 + x213 + x246 + x247 + x248 + x249 + x250
                + x251 + x252 + x253 + x254 + x255 + x286 + x289 + x290 + x291
                + x294 + x301 + x304 + x306 + x309 >= 1
 assignment_92: x_0_0 + gp_92 - gm_92 + x217 + x236 + x237 + x238 + x239 + x240
                + x246 + x247 + x248 + x249 + x250 + x261 + x263 + x264 + x265
                + x271 + x273 + x274 + x275 + x306 >= 1
 assignment_93: x_0_0 + gp_93 - gm_93 + x216 + x221 + x223 + x225 + x262 + x267
                + x282 + x284 + x285 + x287 + x292 + x294 + x307 >= 1
 assignment_94: x_0_0 + gp_94 - gm_94 + x226 + x231 + x232 + x233 + x234 + x235
                + x246 + x247 + x248 + x249 + x250 + x261 + x263 + x264 + x266
                + x269 + x270 + x286 + x287 + x288 + x289 + x290 >= 1
 assignment_95: x_0_0 + gp_95 - gm_95 + x219 + x224 + x225 + x241 + x242 + x243
                + x244 + x245 + x262 + x265 + x267 + x272 + x277 + x282 + x287
                + x297 + x302 + x305 + x307 + x310 >= 1
 assignment_96: x_0_0 + gp_96 - gm_96 + x218 + x219 + x220 + x261 + x262 + x263
                + x264 + x265 + x276 + x277 + x278 + x279 + x280 + x294 + x299
                + x306 + x307 + x308 >= 1
 assignment_97: x_0_0 + gp_97 - gm_97 + x214 + x224 + x246 + x247 + x248 + x249
                + x250 + x266 + x267 + x268 + x269 + x270 + x278 + x279 + x306
                + x307 + x308 + x309 + x310 >= 1
 assignment_98: x_0_0 + gp_98 - gm_98 + x219 + x226 + x227 + x228 + x229 + x230
                + x261 + x262 + x263 + x264 + x265 + x276 + x277 + x278 + x279
                + x281 + x282 + x283 + x284 + x286 + x287 + x288 + x289 >= 1
 assignment_99: x_0_0 + gp_99 - gm_99 + x222 + x223 + x228 + x229 + x241 + x242
                + x243 + x244 + x245 + x246 + x247 + x248 + x249 + x250 + x286
                + x287 + x288 + x289 + x290 + x291 + x292 + x294 + x296 + x297
                + x298 + x299 >= 1
 c101:          yp_0 - ym_0 + x211 + x216 + x221 + x226 + x231 + x236 + x241
                + x246 + x251 + x256 + x261 + x266 + x271 + x276 + x281 + x286
                + x291 + x296 + x301 + x306 <= 1
 c102:          yp_1 - ym_1 + x212 + x217 + x222 + x227 + x232 + x237 + x242
                + x247 + x252 + x257 + x262 + x267 + x272 + x277 + x282 + x287
                + x292 + x297 + x302 + x307 <= 1
 c103:          yp_2 - ym_2 + x213 + x218 + x223 + x228 + x233 + x238 + x243
                + x248 + x253 + x258 + x263 + x268 + x273 + x278 + x283 + x288
                + x293 + x298 + x303 + x308 <= 1
 c104:          yp_3 - ym_3 + x214 + x219 + x224 + x229 + x234 + x239 + x244
                + x249 + x254 + x259 + x264 + x269 + x274 + x279 + x284 + x289
                + x294 + x299 + x304 + x309 <= 1
 c105:          yp_4 - ym_4 + x215 + x220 + x225 + x230 + x235 + x240 + x245
                + x250 + x255 + x260 + x265 + x270 + x275 + x280 + x285 + x290
                + x295 + x300 + x305 + x310 <= 1
Bounds
 0 <= x_0_0 <= 1
 0 <= gp_0 <= 0.1
 0 <= gp_1 <= 0.1
 0 <= gp_2 <= 0.1
 0 <= gp_3 <= 0.1
 0 <= gp_4 <= 0.1
 0 <= gp_5 <= 0.1
 0 <= gp_6 <= 0.1
 0 <= gp_7 <= 0.1
 0 <= gp_8 <= 0.1
 0 <= gp_9 <= 0.1
 0 <= gp_10 <= 0.1
 0 <= gp_11 <= 0.1
 0 <= gp_12 <= 0.1
 0 <= gp_13 <= 0.1
 0 <= gp_14 <= 0.1
 0 <= gp_15 <= 0.1
 0 <= gp_16 <= 0.1
 0 <= gp_17 <= 0.1
 0 <= gp_18 <= 0.1
 0 <= gp_19 <= 0.1
 0 <= gp_20 <= 0.1
 0 <= gp_21 <= 0.1
 0 <= gp_22 <= 0.1
 0 <= gp_23 <= 0.1
 0 <= gp_24 <= 0.1
 0 <= gp_25 <= 0.1
 0 <= gp_26 <= 0.1
 0 <= gp_27 <= 0.1
 0 <= gp_28 <= 0.1
 0 <= gp_29 <= 0.1
 0 <= gp_30 <= 0.1
 0 <= gp_31 <= 0.1
 0 <= gp_32 <= 0.1
 0 <= gp_33 <= 0.1
 0 <= gp_34 <= 0.1
 0 <= gp_35 <= 0.1
 0 <= gp_36 <= 0.1
 0 <= gp_37 <= 0.1
 0 <= gp_38 <= 0.1
 0 <= gp_39 <= 0.1
 0 <= gp_40 <= 0.1
 0 <= gp_41 <= 0.1
 0 <= gp_42 <= 0.1
 0 <= gp_43 <= 0.1
 0 <= gp_44 <= 0.1
 0 <= gp_45 <= 0.1
 0 <= gp_46 <= 0.1
 0 <= gp_47 <= 0.1
 0 <= gp_48 <= 0.1
 0 <= gp_49 <= 0.1
 0 <= gp_50 <= 0.1
 0 <= gp_51 <= 0.1
 0 <= gp_52 <= 0.1
 0 <= gp_53 <= 0.1
 0 <= gp_54 <= 0.1
 0 <= gp_55 <= 0.1
 0 <= gp_56 <= 0.1
 0 <= gp_57 <= 0.1
 0 <= gp_58 <= 0.1
 0 <= gp_59 <= 0.1
 0 <= gp_60 <= 0.1
 0 <= gp_61 <= 0.1
 0 <= gp_62 <= 0.1
 0 <= gp_63 <= 0.1
 0 <= gp_64 <= 0.1
 0 <= gp_65 <= 0.1
 0 <= gp_66 <= 0.1
 0 <= gp_67 <= 0.1
 0 <= gp_68 <= 0.1
 0 <= gp_69 <= 0.1
 0 <= gp_70 <= 0.1
 0 <= gp_71 <= 0.1
 0 <= gp_72 <= 0.1
 0 <= gp_73 <= 0.1
 0 <= gp_74 <= 0.1
 0 <= gp_75 <= 0.1
 0 <= gp_76 <= 0.1
 0 <= gp_77 <= 0.1
 0 <= gp_78 <= 0.1
 0 <= gp_79 <= 0.1
 0 <= gp_80 <= 0.1
 0 <= gp_81 <= 0.1
 0 <= gp_82 <= 0.1
 0 <= gp_83 <= 0.1
 0 <= gp_84 <= 0.1
 0 <= gp_85 <= 0.1
 0 <= gp_86 <= 0.1
 0 <= gp_87 <= 0.1
 0 <= gp_88 <= 0.1
 0 <= gp_89 <= 0.1
 0 <= gp_90 <= 0.1
 0 <= gp_91 <= 0.1
 0 <= gp_92 <= 0.1
 0 <= gp_93 <= 0.1
 0 <= gp_94 <= 0.1
 0 <= gp_95 <= 0.1
 0 <= gp_96 <= 0.1
 0 <= gp_97 <= 0.1
 0 <= gp_98 <= 0.1
 0 <= gp_99 <= 0.1
 0 <= gm_0 <= 0.1
 0 <= gm_1 <= 0.1
 0 <= gm_2 <= 0.1
 0 <= gm_3 <= 0.1
 0 <= gm_4 <= 0.1
 0 <= gm_5 <= 0.1
 0 <= gm_6 <= 0.1
 0 <= gm_7 <= 0.1
 0 <= gm_8 <= 0.1
 0 <= gm_9 <= 0.1
 0 <= gm_10 <= 0.1
 0 <= gm_11 <= 0.1
 0 <= gm_12 <= 0.1
 0 <= gm_13 <= 0.1
 0 <= gm_14 <= 0.1
 0 <= gm_15 <= 0.1
 0 <= gm_16 <= 0.1
 0 <= gm_17 <= 0.1
 0 <= gm_18 <= 0.1
 0 <= gm_19 <= 0.1
 0 <= gm_20 <= 0.1
 0 <= gm_21 <= 0.1
 0 <= gm_22 <= 0.1
 0 <= gm_23 <= 0.1
 0 <= gm_24 <= 0.1
 0 <= gm_25 <= 0.1
 0 <= gm_26 <= 0.1
 0 <= gm_27 <= 0.1
 0 <= gm_28 <= 0.1
 0 <= gm_29 <= 0.1
 0 <= gm_30 <= 0.1
 0 <= gm_31 <= 0.1
 0 <= gm_32 <= 0.1
 0 <= gm_33 <= 0.1
 0 <= gm_34 <= 0.1
 0 <= gm_35 <= 0.1
 0 <= gm_36 <= 0.1
 0 <= gm_37 <= 0.1
 0 <= gm_38 <= 0.1
 0 <= gm_39 <= 0.1
 0 <= gm_40 <= 0.1
 0 <= gm_41 <= 0.1
 0 <= gm_42 <= 0.1
 0 <= gm_43 <= 0.1
 0 <= gm_44 <= 0.1
 0 <= gm_45 <= 0.1
 0 <= gm_46 <= 0.1
 0 <= gm_47 <= 0.1
 0 <= gm_48 <= 0.1
 0 <= gm_49 <= 0.1
 0 <= gm_50 <= 0.1
 0 <= gm_51 <= 0.1
 0 <= gm_52 <= 0.1
 0 <= gm_53 <= 0.1
 0 <= gm_54 <= 0.1
 0 <= gm_55 <= 0.1
 0 <= gm_56 <= 0.1
 0 <= gm_57 <= 0.1
 0 <= gm_58 <= 0.1
 0 <= gm_59 <= 0.1
 0 <= gm_60 <= 0.1
 0 <= gm_61 <= 0.1
 0 <= gm_62 <= 0.1
 0 <= gm_63 <= 0.1
 0 <= gm_64 <= 0.1
 0 <= gm_65 <= 0.1
 0 <= gm_66 <= 0.1
 0 <= gm_67 <= 0.1
 0 <= gm_68 <= 0.1
 0 <= gm_69 <= 0.1
 0 <= gm_70 <= 0.1
 0 <= gm_71 <= 0.1
 0 <= gm_72 <= 0.1
 0 <= gm_73 <= 0.1
 0 <= gm_74 <= 0.1
 0 <= gm_75 <= 0.1
 0 <= gm_76 <= 0.1
 0 <= gm_77 <= 0.1
 0 <= gm_78 <= 0.1
 0 <= gm_79 <= 0.1
 0 <= gm_80 <= 0.1
 0 <= gm_81 <= 0.1
 0 <= gm_82 <= 0.1
 0 <= gm_83 <= 0.1
 0 <= gm_84 <= 0.1
 0 <= gm_85 <= 0.1
 0 <= gm_86 <= 0.1
 0 <= gm_87 <= 0.1
 0 <= gm_88 <= 0.1
 0 <= gm_89 <= 0.1
 0 <= gm_90 <= 0.1
 0 <= gm_91 <= 0.1
 0 <= gm_92 <= 0.1
 0 <= gm_93 <= 0.1
 0 <= gm_94 <= 0.1
 0 <= gm_95 <= 0.1
 0 <= gm_96 <= 0.1
 0 <= gm_97 <= 0.1
 0 <= gm_98 <= 0.1
 0 <= gm_99 <= 0.1
 0 <= yp_0 <= 0.1
 0 <= yp_1 <= 0.1
 0 <= yp_2 <= 0.1
 0 <= yp_3 <= 0.1
 0 <= yp_4 <= 0.1
 0 <= ym_0 <= 0.1
 0 <= ym_1 <= 0.1
 0 <= ym_2 <= 0.1
 0 <= ym_3 <= 0.1
 0 <= ym_4 <= 0.1
End
